
100
26067

515 415
388 288
945 845
544 444
629 529
652 552
439 339
740 640
1001 901
172 72
661 561
365 265
756 656
724 624
146 46
213 113
629 529
959 859
898 798
924 824
238 138
451 351
677 577
467 367
331 231
1023 923
736 636
499 399
577 477
800 700
860 760
880 780
435 335
1068 968
864 764
371 271
272 172
531 431
361 261
978 878
110 10
918 818
262 162
912 812
533 433
232 132
1086 986
519 419
1079 979
423 323
338 238
656 556
295 195
678 578
808 708
742 642
106 6
768 668
369 269
554 454
959 859
967 867
232 132
192 92
854 754
532 432
808 708
747 647
1090 990
961 861
1095 995
1003 903
669 569
508 408
263 163
940 840
592 492
586 486
394 294
431 331
605 505
743 643
410 310
250 150
696 596
1045 945
662 562
1079 979
281 181
897 797
638 538
132 32
275 175
821 721
919 819
232 132
784 684
988 888
341 241
929 829
